NAME: test1936
TYPE: TSP
DIMENSION: 11
EDGE_WEIGHT_TYPE: EUC_2D
NODE_COORD_SECTION
1 91.4485047541595 2.5260271161376857
2 85.11688051038743 31.70131686568257
3 66.26991660304449 51.31883779604007
4 82.67046815447411 6.568970008825604
5 81.06365315396744 14.491043337602383
6 25.329652156238847 28.49002244063723
7 7.337304112338938 7.141532937188655
8 95.14482311106181 81.29691378823904
9 69.34530009026568 40.867680763685186
10 69.12675464337109 6.2792485933835245
11 88.6022166565456 1.958016174419075
EOF
